(set-info :source |printed by MathSAT|)
(declare-fun param_e3 () Bool)
(declare-fun call_firefly.flby () Int)
(declare-fun call_firefly.ite35 () Int)
(declare-fun call_firefly.ite32 () Int)
(declare-fun call_firefly.ite () Int)
(declare-fun call_firefly.ite28 () Int)
(declare-fun call_firefly.ite34 () Int)
(declare-fun call_First2.flby () Int)
(declare-fun call_firefly.ite20 () Int)
(declare-fun call_firefly.exclusive () Int)
(declare-fun shared () Int)
(declare-fun call_firefly.ite3 () Int)
(declare-fun call_firefly.ite38 () Int)
(declare-fun call_firefly.ite16 () Int)
(declare-fun invalid () Int)
(declare-fun call_firefly.ite8 () Int)
(declare-fun _OK_ () Bool)
(declare-fun param_e1 () Bool)
(declare-fun call_firefly.flby4 () Int)
(declare-fun call_firefly.ite12 () Int)
(declare-fun call_First.flby () Int)
(declare-fun call_firefly.shared () Int)
(declare-fun call_firefly.ite39 () Int)
(declare-fun call_First2.First () Int)
(declare-fun procs () Int)
(declare-fun call_firefly.ite24 () Int)
(declare-fun call_firefly.flby2 () Int)
(declare-fun call_firefly.flby3 () Int)
(declare-fun call_firefly.ite29 () Int)
(declare-fun call_firefly.ite26 () Int)
(declare-fun call_firefly.ite2 () Int)
(declare-fun call_firefly.ite23 () Int)
(declare-fun call_firefly.ite40 () Int)
(declare-fun call_firefly.ite10 () Int)
(declare-fun call_excludes8.excludes () Bool)
(declare-fun exclusive () Int)
(declare-fun call_firefly.garde8 () Bool)
(declare-fun call_firefly.ite22 () Int)
(declare-fun call_firefly.ite27 () Int)
(declare-fun call_firefly.ite30 () Int)
(declare-fun call_firefly.ite18 () Int)
(declare-fun call_First.First () Int)
(declare-fun param_e6 () Bool)
(declare-fun call_firefly.ite13 () Int)
(declare-fun env () Bool)
(declare-fun call_Sofar.flby () Bool)
(declare-fun call_firefly.ite17 () Int)
(declare-fun call_firefly.ite4 () Int)
(declare-fun call_firefly.invalid () Int)
(declare-fun call_firefly.flby5 () Int)
(declare-fun call_firefly.ite9 () Int)
(declare-fun param_i_invalid () Int)
(declare-fun call_firefly.ite33 () Int)
(declare-fun param_e2 () Bool)
(declare-fun call_firefly.ite19 () Int)
(declare-fun call_firefly.ite21 () Int)
(declare-fun call_firefly.garde3 () Bool)
(declare-fun call_Sofar.Sofar () Bool)
(declare-fun param_e8 () Bool)
(declare-fun call_firefly.ite6 () Int)
(declare-fun call_firefly.mem_invalid () Int)
(declare-fun call_firefly.ite7 () Int)
(declare-fun call_firefly.garde6 () Bool)
(declare-fun call_firefly.dirty () Int)
(declare-fun call_firefly.ite37 () Int)
(declare-fun call_firefly.ite25 () Int)
(declare-fun call_firefly.ite31 () Int)
(declare-fun call_firefly.ite36 () Int)
(declare-fun param_e5 () Bool)
(declare-fun call_firefly.ite5 () Int)
(declare-fun param_e4 () Bool)
(declare-fun flby () Bool)
(declare-fun call_firefly.ite11 () Int)
(declare-fun param_e7 () Bool)
(declare-fun call_firefly.ite15 () Int)
(declare-fun dirty () Int)
(declare-fun call_firefly.ite14 () Int)
(define-fun .def_1250 () Bool (= call_First2.flby call_First2.First))
(define-fun .def_1248 () Bool (= call_First.flby call_First.First))
(define-fun .def_1246 () Bool (= call_Sofar.flby call_Sofar.Sofar))
(define-fun .def_1028 () Bool (not param_e2))
(define-fun .def_1009 () Bool (not param_e1))
(define-fun .def_1194 () Bool (and .def_1009 .def_1028))
(define-fun .def_1056 () Bool (not param_e3))
(define-fun .def_1195 () Bool (and .def_1056 .def_1194))
(define-fun .def_1081 () Bool (not param_e4))
(define-fun .def_1196 () Bool (and .def_1081 .def_1195))
(define-fun .def_1098 () Bool (not param_e5))
(define-fun .def_1197 () Bool (and .def_1098 .def_1196))
(define-fun .def_1116 () Bool (not param_e6))
(define-fun .def_1198 () Bool (and .def_1116 .def_1197))
(define-fun .def_917 () Bool (not param_e7))
(define-fun .def_1199 () Bool (and .def_917 .def_1198))
(define-fun .def_925 () Bool (not param_e8))
(define-fun .def_1235 () Bool (and .def_925 .def_1199))
(define-fun .def_1228 () Bool (and param_e1 .def_1028))
(define-fun .def_1229 () Bool (and .def_1056 .def_1228))
(define-fun .def_1230 () Bool (and .def_1081 .def_1229))
(define-fun .def_1231 () Bool (and .def_1098 .def_1230))
(define-fun .def_1232 () Bool (and .def_1116 .def_1231))
(define-fun .def_1233 () Bool (and .def_917 .def_1232))
(define-fun .def_1234 () Bool (and .def_925 .def_1233))
(define-fun .def_1236 () Bool (or .def_1234 .def_1235))
(define-fun .def_1221 () Bool (and .def_1009 param_e2))
(define-fun .def_1222 () Bool (and .def_1056 .def_1221))
(define-fun .def_1223 () Bool (and .def_1081 .def_1222))
(define-fun .def_1224 () Bool (and .def_1098 .def_1223))
(define-fun .def_1225 () Bool (and .def_1116 .def_1224))
(define-fun .def_1226 () Bool (and .def_917 .def_1225))
(define-fun .def_1227 () Bool (and .def_925 .def_1226))
(define-fun .def_1237 () Bool (or .def_1227 .def_1236))
(define-fun .def_1215 () Bool (and param_e3 .def_1194))
(define-fun .def_1216 () Bool (and .def_1081 .def_1215))
(define-fun .def_1217 () Bool (and .def_1098 .def_1216))
(define-fun .def_1218 () Bool (and .def_1116 .def_1217))
(define-fun .def_1219 () Bool (and .def_917 .def_1218))
(define-fun .def_1220 () Bool (and .def_925 .def_1219))
(define-fun .def_1238 () Bool (or .def_1220 .def_1237))
(define-fun .def_1210 () Bool (and param_e4 .def_1195))
(define-fun .def_1211 () Bool (and .def_1098 .def_1210))
(define-fun .def_1212 () Bool (and .def_1116 .def_1211))
(define-fun .def_1213 () Bool (and .def_917 .def_1212))
(define-fun .def_1214 () Bool (and .def_925 .def_1213))
(define-fun .def_1239 () Bool (or .def_1214 .def_1238))
(define-fun .def_1206 () Bool (and param_e5 .def_1196))
(define-fun .def_1207 () Bool (and .def_1116 .def_1206))
(define-fun .def_1208 () Bool (and .def_917 .def_1207))
(define-fun .def_1209 () Bool (and .def_925 .def_1208))
(define-fun .def_1240 () Bool (or .def_1209 .def_1239))
(define-fun .def_1203 () Bool (and param_e6 .def_1197))
(define-fun .def_1204 () Bool (and .def_917 .def_1203))
(define-fun .def_1205 () Bool (and .def_925 .def_1204))
(define-fun .def_1241 () Bool (or .def_1205 .def_1240))
(define-fun .def_1201 () Bool (and param_e7 .def_1198))
(define-fun .def_1202 () Bool (and .def_925 .def_1201))
(define-fun .def_1242 () Bool (or .def_1202 .def_1241))
(define-fun .def_1200 () Bool (and param_e8 .def_1199))
(define-fun .def_1243 () Bool (or .def_1200 .def_1242))
(define-fun .def_1244 () Bool (= call_excludes8.excludes .def_1243))
(define-fun .def_1192 () Bool (= call_firefly.flby call_firefly.mem_invalid))
(define-fun .def_1190 () Bool (= call_firefly.flby5 call_firefly.shared))
(define-fun .def_1188 () Bool (= call_firefly.flby4 call_firefly.exclusive))
(define-fun .def_1186 () Bool (= call_firefly.flby3 call_firefly.dirty))
(define-fun .def_1184 () Bool (= call_firefly.flby2 call_firefly.invalid))
(define-fun .def_1182 () Bool (= dirty call_firefly.dirty))
(define-fun .def_1179 () Bool (= invalid call_firefly.invalid))
(define-fun .def_1173 () Bool (<= invalid procs))
(define-fun .def_1171 () Bool (<= 0 invalid))
(define-fun .def_1165 () Int (+ invalid dirty))
(define-fun .def_1161 () Int (* (- 1) procs))
(define-fun .def_1166 () Int (+ .def_1161 .def_1165))
(define-fun .def_1167 () Int (+ shared .def_1166))
(define-fun .def_1168 () Int (+ exclusive .def_1167))
(define-fun .def_1169 () Bool (<= .def_1168 0))
(define-fun .def_1153 () Int (* (- 1) call_First2.First))
(define-fun .def_1154 () Int (+ dirty .def_1153))
(define-fun .def_1155 () Int (+ invalid .def_1154))
(define-fun .def_1156 () Int (+ shared .def_1155))
(define-fun .def_1157 () Int (+ exclusive .def_1156))
(define-fun .def_1158 () Bool (= .def_1157 0))
(define-fun .def_1159 () Bool (and flby .def_1158))
(define-fun .def_1170 () Bool (and .def_1159 .def_1169))
(define-fun .def_1172 () Bool (and .def_1170 .def_1171))
(define-fun .def_1174 () Bool (and .def_1172 .def_1173))
(define-fun .def_1141 () Bool (not env))
(define-fun .def_1175 () Bool (or .def_1141 .def_1174))
(define-fun .def_1176 () Bool (= _OK_ .def_1175))
(define-fun .def_1136 () Bool (= call_firefly.ite36 call_firefly.ite37))
(define-fun .def_1137 () Bool (or param_e7 .def_1136))
(define-fun .def_1133 () Bool (= call_firefly.ite37 call_firefly.ite34))
(define-fun .def_1134 () Bool (or .def_917 .def_1133))
(define-fun .def_1129 () Bool (= call_firefly.ite8 call_firefly.ite5))
(define-fun .def_1130 () Bool (or .def_917 .def_1129))
(define-fun .def_1126 () Bool (= call_firefly.ite7 call_firefly.ite8))
(define-fun .def_1127 () Bool (or param_e7 .def_1126))
(define-fun .def_1131 () Bool (and .def_1127 .def_1130))
(define-fun .def_1135 () Bool (and .def_1131 .def_1134))
(define-fun .def_1138 () Bool (and .def_1135 .def_1137))
(define-fun .def_1122 () Bool (= call_firefly.ite17 call_firefly.ite18))
(define-fun .def_1123 () Bool (or param_e6 .def_1122))
(define-fun .def_1119 () Bool (= call_firefly.ite15 call_firefly.ite18))
(define-fun .def_1120 () Bool (or .def_1116 .def_1119))
(define-fun .def_1115 () Bool (= call_firefly.ite9 call_firefly.ite4))
(define-fun .def_1117 () Bool (or .def_1115 .def_1116))
(define-fun .def_1111 () Bool (= call_firefly.ite9 call_firefly.ite8))
(define-fun .def_1113 () Bool (or .def_1111 param_e6))
(define-fun .def_1118 () Bool (and .def_1113 .def_1117))
(define-fun .def_1121 () Bool (and .def_1118 .def_1120))
(define-fun .def_1124 () Bool (and .def_1121 .def_1123))
(define-fun .def_1106 () Bool (= call_firefly.ite38 call_firefly.ite37))
(define-fun .def_1107 () Bool (or param_e5 .def_1106))
(define-fun .def_1102 () Bool (= call_firefly.ite38 call_firefly.ite33))
(define-fun .def_1103 () Bool (or .def_1098 .def_1102))
(define-fun .def_1097 () Bool (= call_firefly.ite27 call_firefly.ite24))
(define-fun .def_1099 () Bool (or .def_1097 .def_1098))
(define-fun .def_1093 () Bool (= call_firefly.ite26 call_firefly.ite27))
(define-fun .def_1095 () Bool (or .def_1093 param_e5))
(define-fun .def_1100 () Bool (and .def_1095 .def_1099))
(define-fun .def_1104 () Bool (and .def_1100 .def_1103))
(define-fun .def_1108 () Bool (and .def_1104 .def_1107))
(define-fun .def_1089 () Bool (= call_firefly.ite28 call_firefly.ite27))
(define-fun .def_1090 () Bool (or param_e4 .def_1089))
(define-fun .def_1085 () Bool (= call_firefly.ite28 call_firefly.ite23))
(define-fun .def_1086 () Bool (or .def_1081 .def_1085))
(define-fun .def_1080 () Bool (= call_firefly.ite19 call_firefly.ite14))
(define-fun .def_1082 () Bool (or .def_1080 .def_1081))
(define-fun .def_1076 () Bool (= call_firefly.ite19 call_firefly.ite18))
(define-fun .def_1078 () Bool (or .def_1076 param_e4))
(define-fun .def_1083 () Bool (and .def_1078 .def_1082))
(define-fun .def_1087 () Bool (and .def_1083 .def_1086))
(define-fun .def_1091 () Bool (and .def_1087 .def_1090))
(define-fun .def_1071 () Bool (= call_firefly.ite39 call_firefly.ite38))
(define-fun .def_1072 () Bool (or param_e3 .def_1071))
(define-fun .def_1067 () Bool (= call_firefly.ite39 call_firefly.ite32))
(define-fun .def_1068 () Bool (or .def_1056 .def_1067))
(define-fun .def_1063 () Bool (= call_firefly.ite29 call_firefly.ite28))
(define-fun .def_1064 () Bool (or param_e3 .def_1063))
(define-fun .def_1059 () Bool (= call_firefly.ite22 call_firefly.ite29))
(define-fun .def_1060 () Bool (or .def_1056 .def_1059))
(define-fun .def_1055 () Bool (= call_firefly.ite10 call_firefly.ite3))
(define-fun .def_1057 () Bool (or .def_1055 .def_1056))
(define-fun .def_1051 () Bool (= call_firefly.ite10 call_firefly.ite9))
(define-fun .def_1053 () Bool (or .def_1051 param_e3))
(define-fun .def_1058 () Bool (and .def_1053 .def_1057))
(define-fun .def_1061 () Bool (and .def_1058 .def_1060))
(define-fun .def_1065 () Bool (and .def_1061 .def_1064))
(define-fun .def_1069 () Bool (and .def_1065 .def_1068))
(define-fun .def_1073 () Bool (and .def_1069 .def_1072))
(define-fun .def_1046 () Bool (= call_firefly.ite40 call_firefly.ite39))
(define-fun .def_1047 () Bool (or param_e2 .def_1046))
(define-fun .def_1042 () Bool (= call_firefly.ite31 call_firefly.ite40))
(define-fun .def_1043 () Bool (or .def_1028 .def_1042))
(define-fun .def_1037 () Bool (= call_firefly.ite20 call_firefly.ite19))
(define-fun .def_1038 () Bool (or param_e2 .def_1037))
(define-fun .def_1033 () Bool (= call_firefly.ite13 call_firefly.ite20))
(define-fun .def_1034 () Bool (or .def_1028 .def_1033))
(define-fun .def_1027 () Bool (= call_firefly.ite11 call_firefly.ite2))
(define-fun .def_1029 () Bool (or .def_1027 .def_1028))
(define-fun .def_1023 () Bool (= call_firefly.ite11 call_firefly.ite10))
(define-fun .def_1025 () Bool (or .def_1023 param_e2))
(define-fun .def_1030 () Bool (and .def_1025 .def_1029))
(define-fun .def_1035 () Bool (and .def_1030 .def_1034))
(define-fun .def_1039 () Bool (and .def_1035 .def_1038))
(define-fun .def_1044 () Bool (and .def_1039 .def_1043))
(define-fun .def_1048 () Bool (and .def_1044 .def_1047))
(define-fun .def_1018 () Bool (= call_firefly.ite30 call_firefly.ite29))
(define-fun .def_1019 () Bool (or param_e1 .def_1018))
(define-fun .def_1014 () Bool (= call_firefly.ite21 call_firefly.ite30))
(define-fun .def_1015 () Bool (or .def_1009 .def_1014))
(define-fun .def_1008 () Bool (= call_firefly.ite12 call_firefly.ite))
(define-fun .def_1010 () Bool (or .def_1008 .def_1009))
(define-fun .def_1004 () Bool (= call_firefly.ite12 call_firefly.ite11))
(define-fun .def_1006 () Bool (or .def_1004 param_e1))
(define-fun .def_1011 () Bool (and .def_1006 .def_1010))
(define-fun .def_1016 () Bool (and .def_1011 .def_1015))
(define-fun .def_1020 () Bool (and .def_1016 .def_1019))
(define-fun .def_1000 () Bool (= procs call_First.First))
(define-fun .def_996 () Bool (= env call_Sofar.Sofar))
(define-fun .def_992 () Bool (= shared call_firefly.shared))
(define-fun .def_989 () Bool (= exclusive call_firefly.exclusive))
(define-fun .def_993 () Bool (and .def_989 .def_992))
(define-fun .def_997 () Bool (and .def_993 .def_996))
(define-fun .def_1001 () Bool (and .def_997 .def_1000))
(define-fun .def_1021 () Bool (and .def_1001 .def_1020))
(define-fun .def_1049 () Bool (and .def_1021 .def_1048))
(define-fun .def_1074 () Bool (and .def_1049 .def_1073))
(define-fun .def_1092 () Bool (and .def_1074 .def_1091))
(define-fun .def_1109 () Bool (and .def_1092 .def_1108))
(define-fun .def_1125 () Bool (and .def_1109 .def_1124))
(define-fun .def_1139 () Bool (and .def_1125 .def_1138))
(define-fun .def_1177 () Bool (and .def_1139 .def_1176))
(define-fun .def_1180 () Bool (and .def_1177 .def_1179))
(define-fun .def_1183 () Bool (and .def_1180 .def_1182))
(define-fun .def_1185 () Bool (and .def_1183 .def_1184))
(define-fun .def_1187 () Bool (and .def_1185 .def_1186))
(define-fun .def_1189 () Bool (and .def_1187 .def_1188))
(define-fun .def_1191 () Bool (and .def_1189 .def_1190))
(define-fun .def_1193 () Bool (and .def_1191 .def_1192))
(define-fun .def_1245 () Bool (and .def_1193 .def_1244))
(define-fun .def_1247 () Bool (and .def_1245 .def_1246))
(define-fun .def_1249 () Bool (and .def_1247 .def_1248))
(define-fun .def_1251 () Bool (and .def_1249 .def_1250))
(define-fun .def_985 () Bool (= param_i_invalid call_First2.flby))
(define-fun .def_982 () Bool (= param_i_invalid call_First.flby))
(define-fun .def_975 () Bool (<= 5 param_i_invalid))
(define-fun .def_976 () Bool (not .def_975))
(define-fun .def_972 () Bool (<= 0 param_i_invalid))
(define-fun .def_974 () Bool (and .def_972 call_excludes8.excludes))
(define-fun .def_977 () Bool (and .def_974 .def_976))
(define-fun .def_979 () Bool (= .def_977 call_Sofar.flby))
(define-fun .def_970 () Bool (= call_firefly.flby5 0))
(define-fun .def_967 () Bool (= call_firefly.flby4 0))
(define-fun .def_964 () Bool (= call_firefly.flby3 0))
(define-fun .def_961 () Bool (= call_firefly.flby2 call_firefly.mem_invalid))
(define-fun .def_957 () Bool (= param_i_invalid call_firefly.flby))
(define-fun .def_952 () Bool (= call_firefly.ite25 0))
(define-fun .def_951 () Bool (not call_firefly.garde8))
(define-fun .def_953 () Bool (or .def_951 .def_952))
(define-fun .def_947 () Bool (= call_firefly.ite15 1))
(define-fun .def_945 () Bool (not call_firefly.garde6))
(define-fun .def_948 () Bool (or .def_945 .def_947))
(define-fun .def_941 () Bool (= call_firefly.ite22 0))
(define-fun .def_939 () Bool (not call_firefly.garde3))
(define-fun .def_942 () Bool (or .def_939 .def_941))
(define-fun .def_934 () Bool (= call_firefly.ite35 call_firefly.ite36))
(define-fun .def_935 () Bool (or .def_925 .def_934))
(define-fun .def_929 () Bool (= call_firefly.ite6 call_firefly.ite7))
(define-fun .def_930 () Bool (or .def_925 .def_929))
(define-fun .def_923 () Bool (= call_firefly.ite25 call_firefly.ite26))
(define-fun .def_926 () Bool (or .def_923 .def_925))
(define-fun .def_931 () Bool (and .def_926 .def_930))
(define-fun .def_936 () Bool (and .def_931 .def_935))
(define-fun .def_915 () Bool (= call_firefly.ite16 call_firefly.ite17))
(define-fun .def_918 () Bool (or .def_915 .def_917))
(define-fun .def_920 () Bool (and .def_918 flby))
(define-fun .def_937 () Bool (and .def_920 .def_936))
(define-fun .def_943 () Bool (and .def_937 .def_942))
(define-fun .def_949 () Bool (and .def_943 .def_948))
(define-fun .def_954 () Bool (and .def_949 .def_953))
(define-fun .def_958 () Bool (and .def_954 .def_957))
(define-fun .def_962 () Bool (and .def_958 .def_961))
(define-fun .def_965 () Bool (and .def_962 .def_964))
(define-fun .def_968 () Bool (and .def_965 .def_967))
(define-fun .def_971 () Bool (and .def_968 .def_970))
(define-fun .def_980 () Bool (and .def_971 .def_979))
(define-fun .def_983 () Bool (and .def_980 .def_982))
(define-fun .def_986 () Bool (and .def_983 .def_985))
(define-fun .def_1252 () Bool (and .def_986 .def_1251))
(assert .def_1252)
